units           real
atom_style      full
#atom_modify	map hash
boundary        p p p
neighbor	2.5 bin
read_data       data_lammps
timestep        1.0

#bond_style	harmonic
#angle_style 	harmonic
pair_style      reaxff  NULL checkqeq yes 
pair_coeff      * * ffield.Reaxff   H N


fix             1 all qeq/reaxff 1 0.0 10.0 1.0e-6 reaxff
#compute        pqeq all pair coul/pqeqgauss
compute         reax all pair reaxff
log             qeq.eng
thermo          1
dump            1 all custom 1 qeq.lammps id type xu yu zu  q
thermo_style    custom step etotal pe ke ecoul
#unfix		1
run             0
